p cnf 131 462
3 1 -4 0
-3 -1 -4 0
3 -1 4 0
-3 1 4 0
-5 -2 0
-5 -4 0
2 4 5 0
6 1 0
6 -5 0
-1 5 -6 0
-8 -6 0
-8 -7 0
6 7 8 0
10 8 0
10 9 0
-8 -9 -10 0
-10 -11 -12 0
10 11 -12 0
-10 11 12 0
10 -11 12 0
-13 9 -14 0
13 -9 -14 0
-13 -9 14 0
13 9 14 0
14 4 -15 0
-14 -4 -15 0
14 -4 15 0
-14 4 15 0
3 -16 -17 0
-3 16 -17 0
3 16 17 0
-3 -16 17 0
-18 -15 0
-18 -17 0
15 17 18 0
19 12 0
19 -18 0
-12 18 -19 0
-10 20 -21 0
10 -20 -21 0
-10 -20 21 0
10 20 21 0
22 19 0
22 21 0
-19 -21 -22 0
5 15 -23 0
-5 -15 -23 0
5 -15 23 0
-5 15 23 0
-25 24 0
-25 1 0
-24 -1 25 0
-26 4 0
-26 -25 0
-4 25 26 0
-27 -16 0
-27 -7 0
16 7 27 0
-16 27 -28 0
16 -27 -28 0
-16 -27 28 0
16 27 28 0
-28 -8 -29 0
28 8 -29 0
-28 8 29 0
28 -8 29 0
-30 -26 0
-30 29 0
26 -29 30 0
-31 10 0
-31 10 0
-10 31 0
-32 14 0
-32 31 0
-14 -31 32 0
-33 -16 0
-33 6 0
16 -6 33 0
-34 33 0
-34 33 0
-33 34 0
35 32 0
35 34 0
-32 -34 -35 0
15 36 0
-15 36 0
-35 -36 -37 0
35 36 -37 0
-35 36 37 0
35 -36 37 0
40 -25 0
40 -39 0
25 39 -40 0
38 40 -41 0
-38 -40 -41 0
38 -40 41 0
-38 40 41 0
43 -16 0
43 -42 0
16 42 -43 0
44 43 0
44 -39 0
-43 39 -44 0
45 44 0
45 5 0
-44 -5 -45 0
-46 42 0
-46 -20 0
-42 20 46 0
15 -46 -47 0
-15 46 -47 0
15 46 47 0
-15 -46 47 0
-48 42 0
-48 -47 0
-42 47 48 0
-45 48 -49 0
45 -48 -49 0
-45 -48 49 0
45 48 49 0
50 -41 0
50 49 0
41 -49 -50 0
-33 -50 -51 0
33 50 -51 0
-33 50 51 0
33 -50 51 0
-52 -39 0
-52 -13 0
39 13 52 0
-53 24 0
-53 -52 0
-24 52 53 0
54 53 0
54 40 0
-53 -40 -54 0
54 -29 -55 0
-54 29 -55 0
54 29 55 0
-54 -29 55 0
-56 51 0
-56 -55 0
-51 55 56 0
57 37 0
57 56 0
-37 -56 -57 0
-58 30 0
-58 57 0
-30 -57 58 0
-59 -44 0
-59 -28 0
44 28 59 0
60 58 0
60 -59 0
-58 59 -60 0
-61 -23 0
-61 -60 0
23 60 61 0
62 -22 0
62 61 0
22 -61 -62 0
38 9 -63 0
-38 -9 -63 0
38 -9 63 0
-38 9 63 0
64 -63 0
64 40 0
63 -40 -64 0
65 -64 0
65 -6 0
64 6 -65 0
-8 65 -66 0
8 -65 -66 0
-8 -65 66 0
8 65 66 0
-1 -67 -68 0
1 67 -68 0
-1 67 68 0
1 -67 68 0
-28 40 -69 0
28 -40 -69 0
-28 -40 69 0
28 40 69 0
-70 -39 0
-70 -69 0
39 69 70 0
-71 -68 0
-71 70 0
68 -70 71 0
-72 -52 0
-72 38 0
52 -38 72 0
72 53 -73 0
-72 -53 -73 0
72 -53 73 0
-72 53 73 0
-74 71 0
-74 73 0
-71 -73 74 0
75 6 0
75 -26 0
-6 26 -75 0
-76 -74 0
-76 75 0
74 -75 76 0
-77 66 0
-77 -76 0
-66 76 77 0
78 7 0
78 -17 0
-7 17 -78 0
-79 -52 0
-79 -52 0
52 79 0
-80 -79 0
-80 -14 0
79 14 80 0
-80 72 -81 0
80 -72 -81 0
-80 -72 81 0
80 72 81 0
-82 -72 0
-82 -31 0
72 31 82 0
-83 81 0
-83 82 0
-81 -82 83 0
-84 26 0
-84 72 0
-26 -72 84 0
-85 48 0
-85 -20 0
-48 20 85 0
86 84 0
86 -85 0
-84 85 -86 0
83 86 -87 0
-83 -86 -87 0
83 -86 87 0
-83 86 87 0
88 -78 0
88 -87 0
78 87 -88 0
89 9 0
89 -45 0
-9 45 -89 0
90 67 0
90 52 0
-67 -52 -90 0
89 90 -91 0
-89 -90 -91 0
89 -90 91 0
-89 90 91 0
-20 2 -92 0
20 -2 -92 0
-20 -2 92 0
20 2 92 0
-93 27 0
-93 1 0
-27 -1 93 0
94 -92 0
94 93 0
92 -93 -94 0
95 -91 0
95 94 0
91 -94 -95 0
88 -95 -96 0
-88 95 -96 0
88 95 96 0
-88 -95 96 0
-97 77 0
-97 96 0
-77 -96 97 0
-42 28 -98 0
42 -28 -98 0
-42 -28 98 0
42 28 98 0
99 -10 0
99 9 0
10 -9 -99 0
-100 98 0
-100 99 0
-98 -99 100 0
-101 69 0
-101 53 0
-69 -53 101 0
-100 101 -102 0
100 -101 -102 0
-100 -101 102 0
100 101 102 0
103 -69 0
103 47 0
69 -47 -103 0
-104 -1 0
-104 42 0
1 -42 104 0
-105 104 0
-105 -9 0
-104 9 105 0
-105 2 -106 0
105 -2 -106 0
-105 -2 106 0
105 2 106 0
107 106 0
107 -106 0
-103 107 -108 0
103 -107 -108 0
-103 -107 108 0
103 107 108 0
-102 108 -109 0
102 -108 -109 0
-102 -108 109 0
102 108 109 0
97 109 -110 0
-97 -109 -110 0
97 -109 110 0
-97 109 110 0
111 29 0
111 93 0
-29 -93 -111 0
-112 111 0
-112 -63 0
-111 63 112 0
-113 -9 0
-113 40 0
9 -40 113 0
114 -35 0
114 28 0
35 -28 -114 0
-115 113 0
-115 -114 0
-113 114 115 0
116 112 0
116 115 0
-112 -115 -116 0
117 9 0
117 -25 0
-9 25 -117 0
118 -116 0
118 -117 0
116 117 -118 0
-119 15 0
-119 -104 0
-15 104 119 0
-120 -27 0
-120 -119 0
27 119 120 0
-121 28 0
-121 9 0
-28 -9 121 0
-8 46 -122 0
8 -46 -122 0
-8 -46 122 0
8 46 122 0
123 121 0
123 122 0
-121 -122 -123 0
120 -123 -124 0
-120 123 -124 0
120 123 124 0
-120 -123 124 0
-42 -5 -125 0
42 5 -125 0
-42 5 125 0
42 -5 125 0
126 64 0
126 -41 0
-64 41 -126 0
125 126 -127 0
-125 -126 -127 0
125 -126 127 0
-125 126 127 0
-128 -124 0
-128 -127 0
124 127 128 0
-129 -118 0
-129 128 0
118 -128 129 0
130 -110 0
130 -129 0
110 129 -130 0
131 -62 0
131 130 0
62 -130 -131 0
-58 125 103 -3 -123 -24 0
5 -34 10 114 -112 0
-33 88 0
107 28 0
13 -31 73 -64 -118 0
51 91 -99 -7 73 72 0
38 119 -52 -19 -9 0
-11 111 -98 -59 0
-70 27 32 -4 84 -120 0
6 36 22 0
-118 -64 102 131 0
-36 -87 18 0
121 109 -91 94 119 42 0
92 10 39 0
34 -17 119 -113 0
41 82 -32 112 70 0
-57 98 82 72 13 0
-103 -116 -44 -8 -110 -65 0
118 105 -43 18 -131 0
35 -62 0
-98 -22 -35 -129 2 109 0
-30 -9 3 -75 0
82 -112 35 4 0
42 104 0
75 -53 -84 108 0
42 -46 76 -82 -53 0
-36 -28 9 90 -18 0
-29 -83 -88 -121 -4 0
114 96 0
106 -55 0
-121 58 -77 -23 0
111 -21 65 49 -32 -42 0
20 57 -7 119 5 -34 0
105 22 0
70 56 -60 0
-48 43 88 -50 120 -111 0
83 -60 82 98 71 -74 0
14 88 -107 0
-117 34 48 -41 43 0
43 109 -45 -15 -18 65 0
-131 61 39 0
100 91 0
-116 13 0
-8 27 -110 -87 -74 -7 0
-103 -76 -129 42 0
-129 -39 -33 0
-40 -15 -77 80 91 0
95 -84 59 -31 -15 0
-115 -6 -67 109 0
-52 53 22 103 93 0
-88 68 24 -30 -63 -78 0
-46 82 -35 0
-75 -49 55 17 -10 0
37 29 0
-37 18 -71 0
-13 94 116 -130 104 0
70 -74 0
49 -57 -117 -76 -90 0
22 -13 55 31 -64 24 0
-61 83 86 0
82 59 4 2 0
89 99 -32 52 0
-103 -19 57 116 37 0
-108 131 99 -85 0
-50 6 0
-79 -59 124 0
-4 -76 56 88 0
-63 46 37 0
49 52 38 -88 119 95 0
47 115 -91 0
-91 42 30 53 0
-82 -58 0
118 -36 0
-129 14 -41 98 -119 117 0
-26 -39 -66 -60 -101 0
129 -25 -23 128 71 0
-21 118 0
131 0
